p cnf 333 175
111 112 113 0
121 122 123 0
131 132 133 0
211 212 213 0
221 222 223 0
231 232 233 0
311 312 313 0
321 322 323 0
331 332 333 0
-111 -112 0 
-111 -113 0 
-112 -111 0 
-112 -113 0 
-113 -111 0 
-113 -112 0 
-121 -122 0 
-121 -123 0 
-122 -121 0 
-122 -123 0 
-123 -121 0 
-123 -122 0 
-131 -132 0 
-131 -133 0 
-132 -131 0 
-132 -133 0 
-133 -131 0 
-133 -132 0 
-211 -212 0 
-211 -213 0 
-212 -211 0 
-212 -213 0 
-213 -211 0 
-213 -212 0 
-221 -222 0 
-221 -223 0 
-222 -221 0 
-222 -223 0 
-223 -221 0 
-223 -222 0 
-231 -232 0 
-231 -233 0 
-232 -231 0 
-232 -233 0 
-233 -231 0 
-233 -232 0 
-311 -312 0 
-311 -313 0 
-312 -311 0 
-312 -313 0 
-313 -311 0 
-313 -312 0 
-321 -322 0 
-321 -323 0 
-322 -321 0 
-322 -323 0 
-323 -321 0 
-323 -322 0 
-331 -332 0 
-331 -333 0 
-332 -331 0 
-332 -333 0 
-333 -331 0 
-333 -332 0 
-111 -121 0 
-111 -131 0 
-121 -111 0 
-121 -131 0 
-131 -111 0 
-131 -121 0 
-112 -122 0 
-112 -132 0 
-122 -112 0 
-122 -132 0 
-132 -112 0 
-132 -122 0 
-113 -123 0 
-113 -133 0 
-123 -113 0 
-123 -133 0 
-133 -113 0 
-133 -123 0 
-211 -221 0 
-211 -231 0 
-221 -211 0 
-221 -231 0 
-231 -211 0 
-231 -221 0 
-212 -222 0 
-212 -232 0 
-222 -212 0 
-222 -232 0 
-232 -212 0 
-232 -222 0 
-213 -223 0 
-213 -233 0 
-223 -213 0 
-223 -233 0 
-233 -213 0 
-233 -223 0 
-311 -321 0 
-311 -331 0 
-321 -311 0 
-321 -331 0 
-331 -311 0 
-331 -321 0 
-312 -322 0 
-312 -332 0 
-322 -312 0 
-322 -332 0 
-332 -312 0 
-332 -322 0 
-313 -323 0 
-313 -333 0 
-323 -313 0 
-323 -333 0 
-333 -313 0 
-333 -323 0 
-111 -211 0 
-111 -311 0 
-211 -111 0 
-211 -311 0 
-311 -111 0 
-311 -211 0 
-112 -212 0 
-112 -312 0 
-212 -112 0 
-212 -312 0 
-312 -112 0 
-312 -212 0 
-113 -213 0 
-113 -313 0 
-213 -113 0 
-213 -313 0 
-313 -113 0 
-313 -213 0 
-121 -221 0 
-121 -321 0 
-221 -121 0 
-221 -321 0 
-321 -121 0 
-321 -221 0 
-122 -222 0 
-122 -322 0 
-222 -122 0 
-222 -322 0 
-322 -122 0 
-322 -222 0 
-123 -223 0 
-123 -323 0 
-223 -123 0 
-223 -323 0 
-323 -123 0 
-323 -223 0 
-131 -231 0 
-131 -331 0 
-231 -131 0 
-231 -331 0 
-331 -131 0 
-331 -231 0 
-132 -232 0 
-132 -332 0 
-232 -132 0 
-232 -332 0 
-332 -132 0 
-332 -232 0 
-133 -233 0 
-133 -333 0 
-233 -133 0 
-233 -333 0 
-333 -133 0 
-333 -233 0 
131 0
213 0
333 0
